712716
0,71,62,31,70,139,134,82,156,73,38,206,66,48,117,162,126,146,42,30,177,198,158,22,68,225,176,50,97,41,159,112,72,208,217,205,135,180,187,123,172,130,147,181,60,24,122,84,166,78,94,56,75,10,142,196,213,164,193,96,7,119,109,13,200,9,197,199,64,153,163,173,28,83,192,194,118,113,85,69,125,121,151,190,137,2,207,188,15,184,59,136,14,29,219,43,63,4,155,210,222,175,16,46,224,12,47,110,133,18,226,124,45,138,57,58,220,51,79,131,1,114,148,76,221,127,140,23,65,104,215,99,52,91,17,55,53,174,201,98,189,218,105,40,120,179,157,81,203,171,167,92,212,44,211,229,103,102,186,11,145,87,227,108,89,185,170,149,169,141,3,20,216,152,128,32,223,37,202,5,67,8,165,95,90,21,25,143,144,116,19,88,115,183,100,160,106,195,178,191,36,33,204,74,214,77,129,80,39,168,26,111,154,132,101,61,54,150,27,49,107,86,34,93,182,209,6,35,228,161,0